Problem:    
Rows:       104
Columns:    304 (304 integer, 0 binary)
Non-zeros:  592
Status:     INTEGER OPTIMAL
Objective:  z = 4811434 (MINimum)

   No.   Row name        Activity     Lower bound   Upper bound
------ ------------    ------------- ------------- -------------
     1 contraite_20_0
                                 855           855             = 
     2 contraite_8_0
                                 145           145             = 
     3 contraite_16_0
                                 420           420             = 
     4 contraite_2_0
                                 870           870             = 
     5 contraite_19_0
                                   0             0             = 
     6 contraite_23_0
                                   0             0             = 
     7 contraite_20_1
                                 161           161             = 
     8 contraite_8_1
                                 451           451             = 
     9 contraite_16_1
                                 489           489             = 
    10 contraite_2_1
                                   0             0             = 
    11 contraite_19_1
                                   0             0             = 
    12 contraite_23_1
                                   0             0             = 
    13 contraite_20_2
                                   0             0             = 
    14 contraite_8_2
                                 621           621             = 
    15 contraite_16_2
                                 592           592             = 
    16 contraite_2_2
                                   0             0             = 
    17 contraite_19_2
                                   0             0             = 
    18 contraite_23_2
                                 326           326             = 
    19 contraite_20_3
                                 403           403             = 
    20 contraite_8_3
                                 367           367             = 
    21 contraite_16_3
                                  56            56             = 
    22 contraite_2_3
                                 445           445             = 
    23 contraite_19_3
                                 447           447             = 
    24 contraite_23_3
                                 225           225             = 
    25 contraite_7_0
                                   0                           0 
    26 contraite_1_0
                                 959                         961 
    27 contraite_11_0
                                 902                         902 
    28 contraite_24_0
                                 429                         429 
    29 contraite_3_0
                                   0                           0 
    30 contraite_7_1
                                 732                         733 
    31 contraite_1_1
                                   0                           0 
    32 contraite_11_1
                                   0                           0 
    33 contraite_24_1
                                 369                         369 
    34 contraite_3_1
                                   0                           0 
    35 contraite_7_2
                                 316                         317 
    36 contraite_1_2
                                 124                         124 
    37 contraite_11_2
                                   0                           0 
    38 contraite_24_2
                                 227                         227 
    39 contraite_3_2
                                 872                         872 
    40 contraite_7_3
                                   0                           0 
    41 contraite_1_3
                                 424                         427 
    42 contraite_11_3
                                 531                         531 
    43 contraite_24_3
                                 766                         766 
    44 contraite_3_3
                                 222                         222 
    45 contraite_0_0
                                   0             0             = 
    46 contraite_4_0
                                   0             0             = 
    47 contraite_5_0
                                   0             0             = 
    48 contraite_6_0
                                   0             0             = 
    49 contraite_9_0
                                   0             0             = 
    50 contraite_10_0
                                   0             0             = 
    51 contraite_12_0
                                   0             0             = 
    52 contraite_13_0
                                   0             0             = 
    53 contraite_14_0
                                   0             0             = 
    54 contraite_15_0
                                   0             0             = 
    55 contraite_17_0
                                   0             0             = 
    56 contraite_18_0
                                   0             0             = 
    57 contraite_21_0
                                   0             0             = 
    58 contraite_22_0
                                   0             0             = 
    59 contraite_25_0
                                   0             0             = 
    60 contraite_0_1
                                   0             0             = 
    61 contraite_4_1
                                   0             0             = 
    62 contraite_5_1
                                   0             0             = 
    63 contraite_6_1
                                   0             0             = 
    64 contraite_9_1
                                   0             0             = 
    65 contraite_10_1
                                   0             0             = 
    66 contraite_12_1
                                   0             0             = 
    67 contraite_13_1
                                   0             0             = 
    68 contraite_14_1
                                   0             0             = 
    69 contraite_15_1
                                   0             0             = 
    70 contraite_17_1
                                   0             0             = 
    71 contraite_18_1
                                   0             0             = 
    72 contraite_21_1
                                   0             0             = 
    73 contraite_22_1
                                   0             0             = 
    74 contraite_25_1
                                   0             0             = 
    75 contraite_0_2
                                   0             0             = 
    76 contraite_4_2
                                   0             0             = 
    77 contraite_5_2
                                   0             0             = 
    78 contraite_6_2
                                   0             0             = 
    79 contraite_9_2
                                   0             0             = 
    80 contraite_10_2
                                   0             0             = 
    81 contraite_12_2
                                   0             0             = 
    82 contraite_13_2
                                   0             0             = 
    83 contraite_14_2
                                   0             0             = 
    84 contraite_15_2
                                   0             0             = 
    85 contraite_17_2
                                   0             0             = 
    86 contraite_18_2
                                   0             0             = 
    87 contraite_21_2
                                   0             0             = 
    88 contraite_22_2
                                   0             0             = 
    89 contraite_25_2
                                   0             0             = 
    90 contraite_0_3
                                   0             0             = 
    91 contraite_4_3
                                   0             0             = 
    92 contraite_5_3
                                   0             0             = 
    93 contraite_6_3
                                   0             0             = 
    94 contraite_9_3
                                   0             0             = 
    95 contraite_10_3
                                   0             0             = 
    96 contraite_12_3
                                   0             0             = 
    97 contraite_13_3
                                   0             0             = 
    98 contraite_14_3
                                   0             0             = 
    99 contraite_15_3
                                   0             0             = 
   100 contraite_17_3
                                   0             0             = 
   101 contraite_18_3
                                   0             0             = 
   102 contraite_21_3
                                   0             0             = 
   103 contraite_22_3
                                   0             0             = 
   104 contraite_25_3
                                   0             0             = 

   No. Column name       Activity     Lower bound   Upper bound
------ ------------    ------------- ------------- -------------
     1 quantity_e_0_0
                    *              0             0               
     2 quantity_e_1_0
                    *              0             0               
     3 quantity_e_2_0
                    *              0             0               
     4 quantity_e_3_0
                    *              0             0               
     5 quantity_e_4_0
                    *              0             0               
     6 quantity_e_5_0
                    *              0             0               
     7 quantity_e_6_0
                    *            959             0               
     8 quantity_e_7_0
                    *              0             0               
     9 quantity_e_8_0
                    *              0             0               
    10 quantity_e_9_0
                    *              0             0               
    11 quantity_e_10_0
                    *              0             0               
    12 quantity_e_11_0
                    *           1870             0               
    13 quantity_e_12_0
                    *              0             0               
    14 quantity_e_13_0
                    *              0             0               
    15 quantity_e_14_0
                    *           1000             0               
    16 quantity_e_15_0
                    *              0             0               
    17 quantity_e_16_0
                    *              0             0               
    18 quantity_e_17_0
                    *              0             0               
    19 quantity_e_18_0
                    *              0             0               
    20 quantity_e_19_0
                    *              0             0               
    21 quantity_e_20_0
                    *              0             0               
    22 quantity_e_21_0
                    *              0             0               
    23 quantity_e_22_0
                    *              0             0               
    24 quantity_e_23_0
                    *              0             0               
    25 quantity_e_24_0
                    *              0             0               
    26 quantity_e_25_0
                    *              0             0               
    27 quantity_e_26_0
                    *              0             0               
    28 quantity_e_27_0
                    *              0             0               
    29 quantity_e_28_0
                    *              0             0               
    30 quantity_e_29_0
                    *              0             0               
    31 quantity_e_30_0
                    *              0             0               
    32 quantity_e_31_0
                    *              0             0               
    33 quantity_e_32_0
                    *            855             0               
    34 quantity_e_33_0
                    *              0             0               
    35 quantity_e_34_0
                    *              0             0               
    36 quantity_e_35_0
                    *              0             0               
    37 quantity_e_36_0
                    *              0             0               
    38 quantity_e_37_0
                    *              0             0               
    39 quantity_e_38_0
                    *              0             0               
    40 quantity_e_39_0
                    *              0             0               
    41 quantity_e_40_0
                    *              0             0               
    42 quantity_e_41_0
                    *              0             0               
    43 quantity_e_42_0
                    *              0             0               
    44 quantity_e_43_0
                    *              0             0               
    45 quantity_e_44_0
                    *              0             0               
    46 quantity_e_45_0
                    *              0             0               
    47 quantity_e_46_0
                    *              0             0               
    48 quantity_e_47_0
                    *            420             0               
    49 quantity_e_48_0
                    *              0             0               
    50 quantity_e_49_0
                    *              0             0               
    51 quantity_e_50_0
                    *            420             0               
    52 quantity_e_51_0
                    *              0             0               
    53 quantity_e_52_0
                    *           1441             0               
    54 quantity_e_53_0
                    *              0             0               
    55 quantity_e_54_0
                    *              0             0               
    56 quantity_e_55_0
                    *              0             0               
    57 quantity_e_56_0
                    *            420             0               
    58 quantity_e_57_0
                    *              0             0               
    59 quantity_e_58_0
                    *              0             0               
    60 quantity_e_59_0
                    *              0             0               
    61 quantity_e_60_0
                    *              0             0               
    62 quantity_e_61_0
                    *              0             0               
    63 quantity_e_62_0
                    *            420             0               
    64 quantity_e_63_0
                    *              0             0               
    65 quantity_e_64_0
                    *           1870             0               
    66 quantity_e_65_0
                    *              0             0               
    67 quantity_e_66_0
                    *              0             0               
    68 quantity_e_67_0
                    *              0             0               
    69 quantity_e_68_0
                    *              0             0               
    70 quantity_e_69_0
                    *              0             0               
    71 quantity_e_70_0
                    *              0             0               
    72 quantity_e_71_0
                    *              0             0               
    73 quantity_e_72_0
                    *              0             0               
    74 quantity_e_73_0
                    *              0             0               
    75 quantity_e_74_0
                    *           1870             0               
    76 quantity_e_75_0
                    *              0             0               
    77 quantity_e_0_1
                    *              0             0               
    78 quantity_e_1_1
                    *              0             0               
    79 quantity_e_2_1
                    *              0             0               
    80 quantity_e_3_1
                    *              0             0               
    81 quantity_e_4_1
                    *              0             0               
    82 quantity_e_5_1
                    *              0             0               
    83 quantity_e_6_1
                    *              0             0               
    84 quantity_e_7_1
                    *              0             0               
    85 quantity_e_8_1
                    *              0             0               
    86 quantity_e_9_1
                    *              0             0               
    87 quantity_e_10_1
                    *              0             0               
    88 quantity_e_11_1
                    *            612             0               
    89 quantity_e_12_1
                    *              0             0               
    90 quantity_e_13_1
                    *              0             0               
    91 quantity_e_14_1
                    *            612             0               
    92 quantity_e_15_1
                    *              0             0               
    93 quantity_e_16_1
                    *              0             0               
    94 quantity_e_17_1
                    *              0             0               
    95 quantity_e_18_1
                    *              0             0               
    96 quantity_e_19_1
                    *              0             0               
    97 quantity_e_20_1
                    *              0             0               
    98 quantity_e_21_1
                    *              0             0               
    99 quantity_e_22_1
                    *              0             0               
   100 quantity_e_23_1
                    *              0             0               
   101 quantity_e_24_1
                    *              0             0               
   102 quantity_e_25_1
                    *              0             0               
   103 quantity_e_26_1
                    *              0             0               
   104 quantity_e_27_1
                    *              0             0               
   105 quantity_e_28_1
                    *              0             0               
   106 quantity_e_29_1
                    *              0             0               
   107 quantity_e_30_1
                    *            732             0               
   108 quantity_e_31_1
                    *              0             0               
   109 quantity_e_32_1
                    *            161             0               
   110 quantity_e_33_1
                    *              0             0               
   111 quantity_e_34_1
                    *              0             0               
   112 quantity_e_35_1
                    *              0             0               
   113 quantity_e_36_1
                    *              0             0               
   114 quantity_e_37_1
                    *              0             0               
   115 quantity_e_38_1
                    *              0             0               
   116 quantity_e_39_1
                    *              0             0               
   117 quantity_e_40_1
                    *              0             0               
   118 quantity_e_41_1
                    *              0             0               
   119 quantity_e_42_1
                    *              0             0               
   120 quantity_e_43_1
                    *              0             0               
   121 quantity_e_44_1
                    *              0             0               
   122 quantity_e_45_1
                    *              0             0               
   123 quantity_e_46_1
                    *              0             0               
   124 quantity_e_47_1
                    *            489             0               
   125 quantity_e_48_1
                    *              0             0               
   126 quantity_e_49_1
                    *              0             0               
   127 quantity_e_50_1
                    *            489             0               
   128 quantity_e_51_1
                    *              0             0               
   129 quantity_e_52_1
                    *              0             0               
   130 quantity_e_53_1
                    *            489             0               
   131 quantity_e_54_1
                    *              0             0               
   132 quantity_e_55_1
                    *              0             0               
   133 quantity_e_56_1
                    *            489             0               
   134 quantity_e_57_1
                    *              0             0               
   135 quantity_e_58_1
                    *              0             0               
   136 quantity_e_59_1
                    *              0             0               
   137 quantity_e_60_1
                    *              0             0               
   138 quantity_e_61_1
                    *              0             0               
   139 quantity_e_62_1
                    *            489             0               
   140 quantity_e_63_1
                    *              0             0               
   141 quantity_e_64_1
                    *            612             0               
   142 quantity_e_65_1
                    *              0             0               
   143 quantity_e_66_1
                    *              0             0               
   144 quantity_e_67_1
                    *              0             0               
   145 quantity_e_68_1
                    *              0             0               
   146 quantity_e_69_1
                    *              0             0               
   147 quantity_e_70_1
                    *              0             0               
   148 quantity_e_71_1
                    *              0             0               
   149 quantity_e_72_1
                    *              0             0               
   150 quantity_e_73_1
                    *              0             0               
   151 quantity_e_74_1
                    *            612             0               
   152 quantity_e_75_1
                    *              0             0               
   153 quantity_e_0_2
                    *            280             0               
   154 quantity_e_1_2
                    *              0             0               
   155 quantity_e_2_2
                    *              0             0               
   156 quantity_e_3_2
                    *            280             0               
   157 quantity_e_4_2
                    *              0             0               
   158 quantity_e_5_2
                    *              0             0               
   159 quantity_e_6_2
                    *            124             0               
   160 quantity_e_7_2
                    *              0             0               
   161 quantity_e_8_2
                    *              0             0               
   162 quantity_e_9_2
                    *              0             0               
   163 quantity_e_10_2
                    *              0             0               
   164 quantity_e_11_2
                    *            621             0               
   165 quantity_e_12_2
                    *              0             0               
   166 quantity_e_13_2
                    *              0             0               
   167 quantity_e_14_2
                    *            621             0               
   168 quantity_e_15_2
                    *              0             0               
   169 quantity_e_16_2
                    *              0             0               
   170 quantity_e_17_2
                    *              0             0               
   171 quantity_e_18_2
                    *            872             0               
   172 quantity_e_19_2
                    *              0             0               
   173 quantity_e_20_2
                    *              0             0               
   174 quantity_e_21_2
                    *              0             0               
   175 quantity_e_22_2
                    *              0             0               
   176 quantity_e_23_2
                    *              0             0               
   177 quantity_e_24_2
                    *              0             0               
   178 quantity_e_25_2
                    *              0             0               
   179 quantity_e_26_2
                    *              0             0               
   180 quantity_e_27_2
                    *              0             0               
   181 quantity_e_28_2
                    *              0             0               
   182 quantity_e_29_2
                    *              0             0               
   183 quantity_e_30_2
                    *            316             0               
   184 quantity_e_31_2
                    *              0             0               
   185 quantity_e_32_2
                    *              0             0               
   186 quantity_e_33_2
                    *              0             0               
   187 quantity_e_34_2
                    *              0             0               
   188 quantity_e_35_2
                    *              0             0               
   189 quantity_e_36_2
                    *              0             0               
   190 quantity_e_37_2
                    *              0             0               
   191 quantity_e_38_2
                    *              0             0               
   192 quantity_e_39_2
                    *              0             0               
   193 quantity_e_40_2
                    *              0             0               
   194 quantity_e_41_2
                    *              0             0               
   195 quantity_e_42_2
                    *              0             0               
   196 quantity_e_43_2
                    *              0             0               
   197 quantity_e_44_2
                    *              0             0               
   198 quantity_e_45_2
                    *              0             0               
   199 quantity_e_46_2
                    *              0             0               
   200 quantity_e_47_2
                    *              0             0               
   201 quantity_e_48_2
                    *              0             0               
   202 quantity_e_49_2
                    *              0             0               
   203 quantity_e_50_2
                    *              0             0               
   204 quantity_e_51_2
                    *              0             0               
   205 quantity_e_52_2
                    *            124             0               
   206 quantity_e_53_2
                    *              0             0               
   207 quantity_e_54_2
                    *              0             0               
   208 quantity_e_55_2
                    *            872             0               
   209 quantity_e_56_2
                    *            592             0               
   210 quantity_e_57_2
                    *              0             0               
   211 quantity_e_58_2
                    *              0             0               
   212 quantity_e_59_2
                    *              0             0               
   213 quantity_e_60_2
                    *              0             0               
   214 quantity_e_61_2
                    *              0             0               
   215 quantity_e_62_2
                    *            592             0               
   216 quantity_e_63_2
                    *              0             0               
   217 quantity_e_64_2
                    *            667             0               
   218 quantity_e_65_2
                    *             46             0               
   219 quantity_e_66_2
                    *              0             0               
   220 quantity_e_67_2
                    *            326             0               
   221 quantity_e_68_2
                    *              0             0               
   222 quantity_e_69_2
                    *              0             0               
   223 quantity_e_70_2
                    *             46             0               
   224 quantity_e_71_2
                    *              0             0               
   225 quantity_e_72_2
                    *              0             0               
   226 quantity_e_73_2
                    *              0             0               
   227 quantity_e_74_2
                    *            667             0               
   228 quantity_e_75_2
                    *              0             0               
   229 quantity_e_0_3
                    *              0             0               
   230 quantity_e_1_3
                    *              0             0               
   231 quantity_e_2_3
                    *              0             0               
   232 quantity_e_3_3
                    *              0             0               
   233 quantity_e_4_3
                    *              0             0               
   234 quantity_e_5_3
                    *              0             0               
   235 quantity_e_6_3
                    *            424             0               
   236 quantity_e_7_3
                    *              0             0               
   237 quantity_e_8_3
                    *              0             0               
   238 quantity_e_9_3
                    *              0             0               
   239 quantity_e_10_3
                    *              0             0               
   240 quantity_e_11_3
                    *           1215             0               
   241 quantity_e_12_3
                    *              0             0               
   242 quantity_e_13_3
                    *              0             0               
   243 quantity_e_14_3
                    *            770             0               
   244 quantity_e_15_3
                    *              0             0               
   245 quantity_e_16_3
                    *              0             0               
   246 quantity_e_17_3
                    *              0             0               
   247 quantity_e_18_3
                    *            222             0               
   248 quantity_e_19_3
                    *              0             0               
   249 quantity_e_20_3
                    *              0             0               
   250 quantity_e_21_3
                    *              0             0               
   251 quantity_e_22_3
                    *              0             0               
   252 quantity_e_23_3
                    *              0             0               
   253 quantity_e_24_3
                    *              0             0               
   254 quantity_e_25_3
                    *              0             0               
   255 quantity_e_26_3
                    *              0             0               
   256 quantity_e_27_3
                    *              0             0               
   257 quantity_e_28_3
                    *              0             0               
   258 quantity_e_29_3
                    *              0             0               
   259 quantity_e_30_3
                    *              0             0               
   260 quantity_e_31_3
                    *              0             0               
   261 quantity_e_32_3
                    *            403             0               
   262 quantity_e_33_3
                    *              0             0               
   263 quantity_e_34_3
                    *              0             0               
   264 quantity_e_35_3
                    *              0             0               
   265 quantity_e_36_3
                    *              0             0               
   266 quantity_e_37_3
                    *              0             0               
   267 quantity_e_38_3
                    *              0             0               
   268 quantity_e_39_3
                    *              0             0               
   269 quantity_e_40_3
                    *              0             0               
   270 quantity_e_41_3
                    *              0             0               
   271 quantity_e_42_3
                    *              0             0               
   272 quantity_e_43_3
                    *              0             0               
   273 quantity_e_44_3
                    *              0             0               
   274 quantity_e_45_3
                    *              0             0               
   275 quantity_e_46_3
                    *              0             0               
   276 quantity_e_47_3
                    *            281             0               
   277 quantity_e_48_3
                    *              0             0               
   278 quantity_e_49_3
                    *              0             0               
   279 quantity_e_50_3
                    *            281             0               
   280 quantity_e_51_3
                    *              0             0               
   281 quantity_e_52_3
                    *            674             0               
   282 quantity_e_53_3
                    *              0             0               
   283 quantity_e_54_3
                    *              0             0               
   284 quantity_e_55_3
                    *            222             0               
   285 quantity_e_56_3
                    *            503             0               
   286 quantity_e_57_3
                    *              0             0               
   287 quantity_e_58_3
                    *              0             0               
   288 quantity_e_59_3
                    *              0             0               
   289 quantity_e_60_3
                    *              0             0               
   290 quantity_e_61_3
                    *              0             0               
   291 quantity_e_62_3
                    *             56             0               
   292 quantity_e_63_3
                    *              0             0               
   293 quantity_e_64_3
                    *           1440             0               
   294 quantity_e_65_3
                    *            225             0               
   295 quantity_e_66_3
                    *              0             0               
   296 quantity_e_67_3
                    *            225             0               
   297 quantity_e_68_3
                    *              0             0               
   298 quantity_e_69_3
                    *              0             0               
   299 quantity_e_70_3
                    *            225             0               
   300 quantity_e_71_3
                    *              0             0               
   301 quantity_e_72_3
                    *              0             0               
   302 quantity_e_73_3
                    *              0             0               
   303 quantity_e_74_3
                    *           1440             0               
   304 quantity_e_75_3
                    *              0             0               

Integer feasibility conditions:

KKT.PE: max.abs.err = 0.00e+00 on row 0
        max.rel.err = 0.00e+00 on row 0
        High quality

KKT.PB: max.abs.err = 0.00e+00 on row 0
        max.rel.err = 0.00e+00 on row 0
        High quality

End of output
